\ENCODING=ISO-8859-1
\Problem name: kMIS

Maximize
 obj: x1 + x2 + x3 + x4 + x5 + x6 + x7 + x8 + x9 + x10
Subject To
 c1:  x11 + x12 + x13 + x14 + x15 + x16 + x17 + x18 + x19 + x20  = 5
 c2:  x1 + x11 <= 1
 c3:  x2 + x11 <= 1
 c4:  x3 + x11 <= 1
 c5:  x6 + x11 <= 1
 c6:  x9 + x11 <= 1
 c7:  x10 + x11 <= 1
 c8:  x1 + x12 <= 1
 c9:  x3 + x12 <= 1
 c10: x4 + x12 <= 1
 c11: x5 + x12 <= 1
 c12: x8 + x12 <= 1
 c13: x10 + x12 <= 1
 c14: x3 + x13 <= 1
 c15: x4 + x13 <= 1
 c16: x8 + x13 <= 1
 c17: x9 + x13 <= 1
 c18: x5 + x14 <= 1
 c19: x6 + x14 <= 1
 c20: x7 + x14 <= 1
 c21: x10 + x14 <= 1
 c22: x1 + x15 <= 1
 c23: x3 + x15 <= 1
 c24: x5 + x15 <= 1
 c25: x8 + x15 <= 1
 c26: x9 + x15 <= 1
 c27: x2 + x16 <= 1
 c28: x3 + x16 <= 1
 c29: x4 + x16 <= 1
 c30: x6 + x16 <= 1
 c31: x7 + x16 <= 1
 c32: x8 + x16 <= 1
 c33: x10 + x16 <= 1
 c34: x1 + x17 <= 1
 c35: x3 + x17 <= 1
 c36: x7 + x17 <= 1
 c37: x9 + x17 <= 1
 c38: x1 + x18 <= 1
 c39: x2 + x18 <= 1
 c40: x3 + x18 <= 1
 c41: x4 + x18 <= 1
 c42: x7 + x18 <= 1
 c43: x8 + x18 <= 1
 c44: x10 + x18 <= 1
 c45: x1 + x19 <= 1
 c46: x2 + x19 <= 1
 c47: x3 + x19 <= 1
 c48: x5 + x19 <= 1
 c49: x6 + x19 <= 1
 c50: x8 + x19 <= 1
 c51: x9 + x19 <= 1
 c52: x10 + x19 <= 1
 c53: x6 + x20 <= 1
 c54: x8 + x20 <= 1
 c55: x10 + x20 <= 1
Bounds
 0 <= x1 <= 1
 0 <= x2 <= 1
 0 <= x3 <= 1
 0 <= x4 <= 1
 0 <= x5 <= 1
 0 <= x6 <= 1
 0 <= x7 <= 1
 0 <= x8 <= 1
 0 <= x9 <= 1
 0 <= x10 <= 1
 0 <= x11 <= 1
 0 <= x12 <= 1
 0 <= x13 <= 1
 0 <= x14 <= 1
 0 <= x15 <= 1
 0 <= x16 <= 1
 0 <= x17 <= 1
 0 <= x18 <= 1
 0 <= x19 <= 1
 0 <= x20 <= 1
Binaries
 x1  x2  x3  x4  x5  x6  x7  x8  x9  x10  x11  x12  x13  x14  x15  x16  x17 
 x18  x19  x20 
End
